100
128
5
26
39
30
39
18
57
9
46
7
56
62
11
7
18
16
62
23
23
59
11
7
10
49
23
14
22
35
38
64
55
64
24
57
35
45
39
44
12
31
5
45
47
2
45
10
22
5
26
28
11
12
2
33
34
45
16
39
12
33
18
16
20
11
30
20
1
27
21
21
19
11
4
17
23
4
6
22
18
22
49
29
15
36
43
26
62
40
34
52
59
41
24
44
20
31
45
52
4
2